100 10
382 391
198 650
283 296
483 93
370 489
198 238
334 719
488 474
433 550
146 396
15 607
295 355
482 525
469 526
619 608
154 584
190 573
224 459
363 358
499 350
643 377
646 453
330 522
419 716
273 230
526 414
358 780
494 505
454 245
388 428
97 149
374 315
733 847
561 558
435 704
554 617
126 491
27 953
465 645
419 561
837 315
131 371
467 304
369 504
508 301
437 531
506 266
232 725
323 749
484 176
660 99
362 311
191 412
295 675
541 875
257 975
156 369
478 288
511 658
76 639
345 591
783 374
742 926
432 384
353 570
137 768
515 317
863 199
233 770
516 126
499 712
193 536
847 173
142 568
217 497
612 494
503 112
574 713
339 442
672 404
392 143
527 351
431 545
181 452
466 615
469 359
485 700
56 866
824 514
612 833
443 666
82 646
848 631
154 602
572 230
427 704
423 487
148 350
327 281
293 529
